NAME : OMNETRUN
COMMENT : 524.61
TYPE : CVRP
DIMENSION : 21
EDGE_WEIGHT_TYPE : EUC_2D
CAPACITY : 21
NODE_COORD_SECTION
1 0.107093 -0.77924
2 100.05 -1427.45
3 70.9244 -2685.39
4 228.395 -3647.07
5 26.3352 -3973.38
6 25.5866 -4662.55
7 127.146 -5102.48
8 36.6579 -5625.74
9 321.952 -318.719
10 419.987 -684.815
11 358.562 -1076.75
12 401.827 -1645.33
13 420.134 -2335.43
14 275.148 -3256.8
15 443.431 -4144.74
16 422.957 -4521.08
17 321.362 -5414.78
18 491.799 -5981.92
19 696.828 -361.348
20 670.718 -3819.05
21 634.882 -5008.79
DEMAND_SECTION
1 0
2 1
3 1
4 1
5 1
6 1
7 1
8 1
9 1
10 1
11 1
12 1
13 1
14 1
15 1
16 1
17 1
18 1
19 1
20 1
21 1
DEPOT_SECTION
1
-1
EOF
